\* Problem: Unknown *\

Maximize
 obj: + R_3OAS140 - R_3OAS140_reverse_60acb

Subject To
 cpd11492: + rxn2_reverse_bd47f - rxn2 + R_3OAS140_reverse_60acb
 - R_3OAS140 = 0
 cpd00067: - rxn2_reverse_bd47f + rxn2 + 2 R_3OAS140_reverse_60acb
 - 2 R_3OAS140 = 0
 cpd11468: + rxn2_reverse_bd47f - rxn2 + R_3OAS140_reverse_60acb
 - R_3OAS140 = 0
 cpd00011: + rxn2_reverse_bd47f - rxn2 - R_3OAS140_reverse_60acb
 + R_3OAS140 = 0
 cpd11628: - rxn2_reverse_bd47f + rxn2 - R_3OAS140_reverse_60acb
 + R_3OAS140 = 0
 cpd15377: - R_3OAS140_reverse_60acb + R_3OAS140 = 0
 cpd11492_conc: - 0.0166666666666667 rxn2_reverse_bd47f
 + 0.0166666666666667 rxn2 - 0.0166666666666667 R_3OAS140_reverse_60acb
 + 0.0166666666666667 R_3OAS140 >= -1.12764201448045e-12
 cpd00067_conc: - 0.0166666666666667 rxn2_reverse_bd47f
 + 0.0166666666666667 rxn2 - 0.0333333333333333 R_3OAS140_reverse_60acb
 + 0.0333333333333333 R_3OAS140 >= 2.53367167414888e-13
 cpd11468_conc: - 0.0166666666666667 rxn2_reverse_bd47f
 + 0.0166666666666667 rxn2 - 0.0166666666666667 R_3OAS140_reverse_60acb
 + 0.0166666666666667 R_3OAS140 >= -1.12764201448045e-12
 cpd00011_conc: - 0.0166666666666667 rxn2_reverse_bd47f
 + 0.0166666666666667 rxn2 - 0.0166666666666667 R_3OAS140_reverse_60acb
 + 0.0166666666666667 R_3OAS140 >= -5.4479211643674e-13
 cpd11628_conc: - 0.0166666666666667 rxn2_reverse_bd47f
 + 0.0166666666666667 rxn2 - 0.0166666666666667 R_3OAS140_reverse_60acb
 + 0.0166666666666667 R_3OAS140 >= 1.12764201448045e-12
 cpd15377_conc: - 0.0166666666666667 R_3OAS140_reverse_60acb
 + 0.0166666666666667 R_3OAS140 >= 2.91424949021852e-13
 R_3OAS140_kinetics: - R_3OAS140_reverse_60acb + R_3OAS140
 = 2.71119375755581e-16
 rxn2_kinetics: - rxn2_reverse_bd47f + rxn2 = 2.75295258916684e-17

Bounds
 0 <= R_3OAS140 <= 1000
 R_3OAS140_reverse_60acb = 0
 0 <= rxn2 <= 1000
 rxn2_reverse_bd47f = 0

End
